NAME : a280.tsp
COMMENT : Optimal tour for a280.tsp
TYPE : TOUR
DIMENSION : 280
Total Length: 2925.567182391306
TOUR_SECTION
1
2
280
3
279
278
248
249
250
251
230
229
228
227
211
214
215
216
213
212
210
209
252
255
256
258
259
260
275
276
277
4
5
6
7
9
8
10
11
12
15
13
14
24
23
25
22
26
27
28
29
32
33
34
31
30
125
124
123
122
121
120
119
157
158
159
160
175
174
173
107
106
105
104
108
110
112
87
85
66
67
58
57
46
45
44
59
63
64
65
86
116
113
111
114
115
117
118
62
61
60
43
42
41
40
35
36
37
38
39
47
48
49
50
51
52
53
54
55
56
68
69
70
71
72
73
74
84
83
88
109
89
81
82
76
75
77
78
79
80
90
91
92
93
94
95
96
97
98
99
100
101
102
103
169
170
171
172
168
167
166
165
164
163
162
161
183
184
185
186
187
188
189
190
191
192
193
194
195
197
196
201
198
199
144
145
146
143
142
141
140
139
148
147
149
150
178
179
180
182
181
176
177
151
152
156
153
155
154
126
127
129
130
128
21
20
131
132
19
18
17
133
134
270
269
135
136
268
137
138
266
267
265
264
263
262
16
271
272
273
274
261
257
254
253
208
207
206
205
204
203
200
202
217
220
221
222
219
218
223
224
225
226
234
235
233
236
237
232
231
246
245
247
244
243
242
241
240
239
238
-1
EOF
